p ocr 1485 1433 2917
1 2464
1 2612
2 2464
3 2464
4 2464
5 2464
6 2464
7 2464
8 2464
9 2464
10 2464
11 2464
12 2464
13 2464
14 2464
15 2464
16 2464
17 2464
18 2464
19 2464
20 2464
21 2464
22 2464
23 2464
24 2464
25 2464
26 2464
27 2464
28 2464
29 2464
30 2464
31 2464
32 2464
33 2464
34 2464
35 2464
36 2464
37 2464
38 2464
39 2464
40 2464
41 2464
42 2464
43 2464
44 2464
45 2464
46 2464
47 2464
48 2464
49 2464
50 2464
51 2464
52 2464
53 2464
54 2464
55 2464
56 2464
57 2464
58 2464
59 2464
60 2464
61 2464
62 2464
63 2464
64 2464
65 2464
66 2464
67 2464
68 2464
69 2464
70 2464
71 2464
72 2464
73 2464
74 2464
75 2464
76 2464
77 2464
78 2464
79 2464
80 2464
81 2464
82 2464
83 2464
84 2464
85 2464
86 2464
87 2464
88 2464
89 2464
90 2464
91 2464
92 2464
93 2464
94 2464
95 2464
96 2464
97 2464
98 2464
99 2464
100 2464
101 2464
102 2464
103 2464
104 2464
105 2464
106 2464
107 2464
108 2464
109 2464
110 2464
111 2464
112 2464
113 2464
114 2464
115 2464
116 2464
117 2464
118 2464
119 2464
120 2464
121 2464
122 2464
123 2464
124 2464
125 2464
126 2464
127 2464
128 2464
129 2464
130 2464
131 2464
132 2464
133 2464
134 2464
135 2464
136 2464
137 2464
138 2464
139 2464
140 2464
141 2464
142 2464
143 2464
144 2464
145 2464
146 2464
147 2464
148 2464
149 2464
150 2464
151 2464
152 2464
153 2464
154 2464
155 2464
156 2464
157 2464
158 2464
159 2464
160 2464
161 2464
162 2464
163 2464
164 2464
165 2464
166 2464
167 2464
168 2464
169 2464
170 2464
171 2464
172 2464
173 2464
174 2464
175 2464
176 2464
177 2464
178 2464
179 2464
180 2464
181 2464
182 2464
183 2464
184 2464
185 2464
186 2464
187 2464
188 2464
189 2464
190 2464
191 2464
192 2464
193 2464
194 2464
195 2464
196 2464
197 2464
198 2464
199 2464
200 2464
201 2464
202 2464
203 2464
204 2464
205 2464
206 2464
207 2464
208 2464
209 2464
210 2464
211 2464
212 2464
213 2464
214 2464
215 2464
216 2464
217 2464
218 2464
219 2464
220 2464
221 2464
222 2464
223 2464
224 2464
225 2464
226 2464
227 2464
228 2464
229 2464
230 2464
231 2464
232 2464
233 2464
234 2464
235 2464
236 2464
237 2464
238 2464
239 2464
240 2464
241 2464
242 2464
243 2464
244 2464
245 2464
246 2464
247 2464
248 2464
249 2464
250 2464
251 2464
252 2464
253 2464
254 2464
255 2464
256 2464
257 2464
258 2464
259 2464
260 2464
261 2464
262 2464
263 2464
264 2464
265 2464
266 2464
267 2464
268 2464
269 2464
270 2464
271 2464
272 2464
273 2464
274 2464
275 2464
276 2464
277 2464
278 2464
279 2464
280 2464
281 2464
282 2464
283 2464
284 2464
285 2464
286 2464
287 2464
288 2464
289 2464
290 2464
291 2464
292 2464
293 2464
294 2464
295 2464
296 2464
297 2464
298 2464
299 2464
300 2464
301 2464
302 2464
303 2464
304 2464
305 2464
306 2464
307 2464
308 2464
309 2464
310 2464
311 2464
312 2464
313 2464
314 2464
315 2464
316 2464
317 2464
318 2464
319 2464
320 2464
321 2464
322 2464
323 2464
324 2464
325 2464
326 2464
327 2464
328 2464
329 2464
330 2464
331 2464
332 2464
333 2464
334 2464
335 2464
336 2464
337 2464
338 2464
339 2464
340 2464
341 2464
342 2464
343 2464
344 2464
345 2464
346 2464
347 2464
348 2464
349 2464
350 2464
351 2464
352 2464
353 2464
354 2464
355 2464
356 2464
357 2464
358 2464
359 2464
360 2464
361 2464
362 2464
363 2464
364 2464
365 2464
366 2464
367 2464
368 2464
369 2464
370 2464
371 2464
372 2464
373 2464
374 2464
375 2464
376 2464
377 2464
378 2464
379 2464
380 2464
381 2464
382 2464
383 2464
384 2464
385 2464
386 2464
387 2464
388 2464
389 2464
390 2464
391 2464
392 2464
393 2464
394 2464
395 2464
396 2464
397 2464
398 2464
399 2464
400 2464
401 2464
402 2464
403 2464
404 2464
405 2464
406 2464
407 2464
408 2464
409 2464
410 2464
411 2464
412 2464
413 2464
414 2464
415 2464
416 2464
417 2464
418 2464
419 2464
420 2464
421 2464
422 2464
423 2464
424 2464
425 2464
426 2464
427 2464
428 2464
429 2464
430 2464
431 2464
432 2464
433 2464
434 2464
435 2464
436 2464
437 2464
438 2464
439 2464
440 2464
441 2464
442 2464
443 2464
444 2464
445 2464
446 2464
447 2464
448 2464
449 2464
450 2464
451 2464
452 2464
453 2464
454 2464
455 2464
456 2464
457 2464
458 2464
459 2464
460 2464
461 2464
462 2464
463 2464
464 2464
465 2464
466 2464
467 2464
468 2464
469 2464
470 2464
471 2464
472 2464
473 2464
474 2464
475 2464
476 2464
477 2464
478 2464
479 2464
480 2464
481 2464
482 2464
483 2464
484 2464
485 2464
486 2464
487 2464
488 2464
489 2464
490 2464
491 2464
492 2464
493 2464
494 2464
495 2464
496 2464
497 2464
498 2464
499 2464
500 2464
501 2464
502 2464
503 2464
504 2464
505 2464
506 2464
507 2464
508 2464
509 2464
510 2464
511 2464
512 2464
513 2464
514 2464
515 2464
516 2464
517 2464
518 2464
519 2464
520 2464
521 2464
522 2464
523 2464
524 2464
525 2464
526 2464
527 2464
528 2464
529 2464
530 2464
531 2464
532 2464
533 2464
534 2464
535 2464
536 2464
537 2464
538 2464
539 2464
540 2464
541 2464
542 2464
543 2464
544 2464
545 2464
546 2464
547 2464
548 2464
549 2464
550 2464
551 2464
552 2464
553 2464
554 2464
555 2464
556 2464
557 2464
558 2464
559 2464
560 2464
561 2464
562 2464
563 2464
564 2464
565 2464
566 2464
567 2464
568 2464
569 2464
570 2464
571 2464
572 2464
573 2464
574 2464
575 2464
576 2464
577 2464
578 2464
579 2464
580 2464
581 2464
582 2464
583 2464
584 2464
585 2464
586 2464
587 2464
588 2464
589 2464
590 2464
591 2464
592 2464
593 2464
594 2464
595 2464
596 2464
597 2464
598 2464
599 2464
600 2464
601 2464
602 2464
603 2464
604 2464
605 2464
606 2464
607 2464
608 2464
609 2464
610 2464
611 2464
612 2464
613 2464
614 2464
615 2464
616 2464
617 2464
618 2464
619 2464
620 2464
621 2464
622 2464
623 2464
624 2464
625 2464
626 2464
627 2464
628 2464
629 2464
630 2464
631 2464
632 2464
633 2464
634 2464
635 2464
636 2464
637 2464
638 2464
639 2464
640 2464
641 2464
642 2464
643 2464
644 2464
645 2464
646 2464
647 2464
648 2464
649 2464
650 2464
651 2464
652 2464
653 2464
654 2464
655 2464
656 2464
657 2464
658 2464
659 2464
660 2464
661 2464
662 2464
663 2464
664 2464
665 2464
666 2464
667 2464
668 2464
669 2464
670 2464
671 2464
672 2464
673 2464
674 2464
675 2464
676 2464
677 2464
678 2464
679 2464
680 2464
681 2464
682 2464
683 2464
684 2464
685 2464
686 2464
687 2464
688 2464
689 2464
690 2464
691 2464
692 2464
693 2464
694 2464
695 2464
696 2464
697 2464
698 2464
699 2464
700 2464
701 2464
702 2464
703 2464
704 2464
705 2464
706 2464
707 2464
708 2464
709 2464
710 2464
711 2464
712 2464
713 2464
714 2464
715 2464
716 2464
717 2464
718 2464
719 2464
720 2464
721 2464
722 2464
723 2464
724 2464
725 2464
726 2464
727 2464
728 2464
729 2464
730 2464
731 2464
732 2464
733 2464
734 2464
735 2464
736 2464
737 2464
738 2464
739 2464
740 2464
741 2464
742 2464
743 2464
744 2464
745 2464
746 2464
747 2464
748 2464
749 2464
750 2464
751 2464
752 2464
753 2464
754 2464
755 2464
756 2464
757 2464
758 2464
759 2464
760 2464
761 2464
762 2464
763 2464
764 2464
765 2464
766 2464
767 2464
768 2464
769 2464
770 2464
771 2464
772 2464
773 2464
774 2464
775 2464
776 2464
777 2464
778 2464
779 2464
780 2464
781 2464
782 2464
783 2464
784 2464
785 2464
786 2464
787 2464
788 2464
789 2464
790 2464
791 2464
792 2464
793 2464
794 2464
795 2464
796 2464
797 2464
798 2464
799 2464
800 2464
801 2464
802 2464
803 2464
804 2464
805 2464
806 2464
807 2464
808 2464
809 2464
810 2464
811 2464
812 2464
813 2464
814 2464
815 2464
816 2464
817 2464
818 2464
819 2464
820 2464
821 2464
822 2464
823 2464
824 2464
825 2464
826 2464
827 2464
828 2464
829 2464
830 2464
831 2464
832 2464
833 2464
834 2464
835 2464
836 2464
837 2464
838 2464
839 2464
840 2464
841 2464
842 2464
843 2464
844 2464
845 2464
846 2464
847 2464
848 2464
849 2464
850 2464
851 2464
852 2464
853 2464
854 2464
855 2464
856 2464
857 2464
858 2464
859 2464
860 2464
861 2464
862 2464
863 2464
864 2464
865 2464
866 2464
867 2464
868 2464
869 2464
870 2464
871 2464
872 2464
873 2464
874 2464
875 2464
876 2464
877 2464
878 2464
879 2464
880 2464
881 2464
882 2464
883 2464
884 2464
885 2464
886 2464
887 2464
888 2464
889 2464
890 2464
891 2464
892 2464
893 2464
894 2464
895 2464
896 2464
897 2464
898 2464
899 2464
900 2464
901 2464
902 2464
903 2464
904 2464
905 2464
906 2464
907 2464
908 2464
909 2464
910 2464
911 2464
912 2464
913 2464
914 2464
915 2464
916 2464
917 2464
918 2464
919 2464
920 2464
921 2464
922 2464
923 2464
924 2464
925 2464
926 2464
927 2464
928 2464
929 2464
930 2464
931 2464
932 2464
933 2464
934 2464
935 2464
936 2464
937 2464
938 2464
939 2464
940 2464
941 2464
942 2464
943 2464
944 2464
945 2464
946 2464
947 2464
948 2464
949 2464
950 2464
951 2464
952 2464
953 2464
954 2464
955 2464
956 2464
957 2464
958 2464
959 2464
960 2464
961 2464
962 2464
963 2464
964 2464
965 2464
966 2464
967 2464
968 2464
969 2464
970 2464
971 2464
972 2464
973 2464
974 2464
975 2464
976 2464
977 2464
978 2464
979 2464
980 2464
981 2464
982 2464
983 2464
984 2464
985 2464
986 2464
987 2464
988 2464
989 2464
990 2464
991 2464
992 2464
993 2464
994 2464
995 2464
996 2464
997 2464
998 2464
999 2464
1000 2464
1001 2464
1002 2464
1003 2464
1004 2464
1005 2464
1006 2464
1007 2464
1008 2464
1009 2464
1010 2464
1011 2464
1012 2464
1013 2464
1014 2464
1015 2464
1016 2464
1017 2464
1018 2464
1019 2464
1020 2464
1021 2464
1022 2464
1023 2464
1024 2464
1025 2464
1026 2464
1027 2464
1028 2464
1029 2464
1030 2464
1031 2464
1032 2464
1033 2464
1034 2464
1035 2464
1036 2464
1037 2464
1038 2464
1039 2464
1040 2464
1041 2464
1042 2464
1043 2464
1044 2464
1045 2464
1046 2464
1047 2464
1048 2464
1049 2464
1050 2464
1051 2464
1052 2464
1053 2464
1054 2464
1055 2464
1056 2464
1057 2464
1058 2464
1059 2464
1060 2464
1061 2464
1062 2464
1063 2464
1064 2464
1065 2464
1066 2464
1067 2464
1068 2464
1069 2464
1070 2464
1071 2464
1072 2464
1073 2464
1074 2464
1075 2464
1076 2464
1077 2464
1078 2464
1079 2464
1080 2464
1081 2464
1082 2464
1083 2464
1084 2464
1085 2464
1086 2464
1087 2464
1088 2464
1089 2464
1090 2464
1091 2464
1092 2464
1093 2464
1094 2464
1095 2464
1096 2464
1097 2464
1098 2464
1099 2464
1100 2464
1101 2464
1102 2464
1103 2464
1104 2464
1105 2464
1106 2464
1107 2464
1108 2464
1109 2464
1110 2464
1111 2464
1112 2464
1113 2464
1114 2464
1115 2464
1116 2464
1117 2464
1118 2464
1119 2464
1120 2464
1121 2464
1122 2464
1123 2464
1124 2464
1125 2464
1126 2464
1127 2464
1128 2464
1129 2464
1130 2464
1131 2464
1132 2464
1133 2464
1134 2464
1135 2464
1136 2464
1137 2464
1138 2464
1139 2464
1140 2464
1141 2464
1142 2464
1143 2464
1144 2464
1145 2464
1146 2464
1147 2464
1148 2464
1149 2464
1150 2464
1151 2464
1152 2464
1153 2464
1154 2464
1155 2464
1156 2464
1157 2464
1158 2464
1159 2464
1160 2464
1161 2464
1162 2464
1163 2464
1164 2464
1165 2464
1166 2464
1167 2464
1168 2464
1169 2464
1170 2464
1171 2464
1172 2464
1173 2464
1174 2464
1175 2464
1176 2464
1177 2464
1178 2464
1179 2464
1180 2464
1181 2464
1182 2464
1183 2464
1184 2464
1185 2464
1186 2464
1187 2464
1188 2464
1189 2464
1190 2464
1191 2464
1192 2464
1193 2464
1194 2464
1195 2464
1196 2464
1197 2464
1198 2464
1199 2464
1200 2464
1201 2464
1202 2464
1203 2464
1204 2464
1205 2464
1206 2464
1207 2464
1208 2464
1209 2464
1210 2464
1211 2464
1212 2464
1213 2464
1214 2464
1215 2464
1216 2464
1217 2464
1218 2464
1219 2464
1220 2464
1221 2464
1222 2464
1223 2464
1224 2464
1225 2464
1226 2464
1227 2464
1228 2464
1229 2464
1230 2464
1231 2464
1232 2464
1233 2464
1234 2464
1235 2464
1236 2464
1237 2464
1238 2464
1239 2464
1240 2464
1241 2464
1242 2464
1243 2464
1244 2464
1245 2464
1246 2464
1247 2464
1248 2464
1249 2464
1250 2464
1251 2464
1252 2464
1253 2464
1254 2464
1255 2464
1256 2464
1257 2464
1258 2464
1259 2464
1260 2464
1261 2464
1262 2464
1263 2464
1264 2464
1265 2464
1266 2464
1267 2464
1268 2464
1269 2464
1270 2464
1271 2464
1272 2464
1273 2464
1274 2464
1275 2464
1276 2464
1277 2464
1278 2464
1279 2464
1280 2464
1281 2464
1282 2464
1283 2464
1284 2464
1285 2464
1286 2464
1287 2464
1288 2464
1289 2464
1290 2464
1291 2464
1292 2464
1293 2464
1294 2464
1295 2464
1296 2464
1297 2464
1298 2464
1299 2464
1300 2464
1301 2464
1302 2464
1303 2464
1304 2464
1305 2464
1306 2464
1307 2464
1308 2464
1309 2464
1310 2464
1311 2464
1312 2464
1313 2464
1314 2464
1315 2464
1316 2464
1317 2464
1318 2464
1319 2464
1320 2464
1321 2464
1322 2464
1323 2464
1324 2464
1325 2464
1326 2464
1327 2464
1328 2464
1329 2464
1330 2464
1331 2464
1332 2464
1333 2464
1334 2464
1335 2464
1336 2464
1337 2464
1338 2464
1339 2464
1340 2464
1341 2464
1342 2464
1343 2464
1344 2464
1345 2464
1346 2464
1347 2464
1348 2464
1349 2464
1350 2464
1351 2464
1352 2464
1353 2464
1354 2464
1355 2464
1356 2464
1357 2464
1358 2464
1359 2464
1360 2464
1361 2464
1362 2464
1363 2464
1364 2464
1365 2464
1366 2464
1367 2464
1368 2464
1369 2464
1370 2464
1371 2464
1372 2464
1373 2464
1374 2464
1375 2464
1376 2464
1377 2464
1378 2464
1379 2464
1380 2464
1381 2464
1382 2464
1383 2464
1384 2464
1385 2464
1386 2464
1387 2464
1388 2464
1389 2464
1390 2464
1391 2464
1392 2464
1393 2464
1394 2464
1395 2464
1396 2464
1397 2464
1398 2464
1399 2464
1400 2464
1401 2464
1402 2464
1403 2464
1404 2464
1405 2464
1406 2464
1407 2464
1408 2464
1409 2464
1410 2464
1411 2464
1412 2464
1413 2464
1414 2464
1415 2464
1416 2464
1417 2464
1418 2464
1419 2464
1420 2464
1421 2464
1422 2464
1423 2464
1424 2464
1425 2464
1426 2464
1427 2464
1428 2464
1429 2464
1430 2464
1431 2464
1432 1486
1432 1487
1432 1488
1432 1489
1432 1490
1432 1491
1432 1492
1432 1493
1432 1494
1432 1495
1432 1496
1432 1497
1432 1498
1432 1499
1432 1500
1432 1501
1432 1502
1432 1503
1432 1504
1432 1505
1432 1506
1432 1507
1432 1508
1432 1509
1432 1510
1432 1511
1432 1512
1432 1513
1432 1514
1432 1515
1432 1516
1432 1517
1432 1518
1432 1519
1432 1520
1432 1521
1432 1522
1432 1523
1432 1524
1432 1525
1432 1526
1432 1527
1432 1528
1432 1529
1432 1530
1432 1531
1432 1532
1432 1533
1432 1534
1432 1535
1432 1536
1432 1537
1432 1538
1432 1539
1432 1540
1432 1541
1432 1542
1432 1543
1432 1544
1432 1545
1432 1546
1432 1547
1432 1548
1432 1549
1432 1550
1432 1551
1432 1552
1432 1553
1432 1554
1432 1555
1432 1556
1432 1557
1432 1558
1432 1559
1432 1560
1432 1561
1432 1562
1432 1563
1432 1564
1432 1565
1432 1566
1432 1567
1432 1568
1432 1569
1432 1570
1432 1571
1432 1572
1432 1573
1432 1574
1432 1575
1432 1576
1432 1577
1432 1578
1432 1579
1432 1580
1432 1581
1432 1582
1432 1583
1432 1584
1432 1585
1432 1586
1432 1587
1432 1588
1432 1589
1432 1590
1432 1591
1432 1592
1432 1593
1432 1594
1432 1595
1432 1596
1432 1597
1432 1598
1432 1599
1432 1600
1432 1601
1432 1602
1432 1603
1432 1604
1432 1605
1432 1606
1432 1607
1432 1608
1432 1609
1432 1610
1432 1611
1432 1612
1432 1613
1432 1614
1432 1615
1432 1616
1432 1617
1432 1618
1432 1619
1432 1620
1432 1621
1432 1622
1432 1623
1432 1624
1432 1625
1432 1626
1432 1627
1432 1628
1432 1629
1432 1630
1432 1631
1432 1632
1432 1633
1432 1634
1432 1635
1432 1636
1432 1637
1432 1638
1432 1639
1432 1640
1432 1641
1432 1642
1432 1643
1432 1644
1432 1645
1432 1646
1432 1647
1432 1648
1432 1649
1432 1650
1432 1651
1432 1652
1432 1653
1432 1654
1432 1655
1432 1656
1432 1657
1432 1658
1432 1659
1432 1660
1432 1661
1432 1662
1432 1663
1432 1664
1432 1665
1432 1666
1432 1667
1432 1668
1432 1669
1432 1670
1432 1671
1432 1672
1432 1673
1432 1674
1432 1675
1432 1676
1432 1677
1432 1678
1432 1679
1432 1680
1432 1681
1432 1682
1432 1683
1432 1684
1432 1685
1432 1686
1432 1687
1432 1688
1432 1689
1432 1690
1432 1691
1432 1692
1432 1693
1432 1694
1432 1695
1432 1696
1432 1697
1432 1698
1432 1699
1432 1700
1432 1701
1432 1702
1432 1703
1432 1704
1432 1705
1432 1706
1432 1707
1432 1708
1432 1709
1432 1710
1432 1711
1432 1712
1432 1713
1432 1714
1432 1715
1432 1716
1432 1717
1432 1718
1432 1719
1432 1720
1432 1721
1432 1722
1432 1723
1432 1724
1432 1725
1432 1726
1432 1727
1432 1728
1432 1729
1432 1730
1432 1731
1432 1732
1432 1733
1432 1734
1432 1735
1432 1736
1432 1737
1432 1738
1432 1739
1432 1740
1432 1741
1432 1742
1432 1743
1432 1744
1432 1745
1432 1746
1432 1747
1432 1748
1432 1749
1432 1750
1432 1751
1432 1752
1432 1753
1432 1754
1432 1755
1432 1756
1432 1757
1432 1758
1432 1759
1432 1760
1432 1761
1432 1762
1432 1763
1432 1764
1432 1765
1432 1766
1432 1767
1432 1768
1432 1769
1432 1770
1432 1771
1432 1772
1432 1773
1432 1774
1432 1775
1432 1776
1432 1777
1432 1778
1432 1779
1432 1780
1432 1781
1432 1782
1432 1783
1432 1784
1432 1785
1432 1786
1432 1787
1432 1788
1432 1789
1432 1790
1432 1791
1432 1792
1432 1793
1432 1794
1432 1795
1432 1796
1432 1797
1432 1798
1432 1799
1432 1800
1432 1801
1432 1802
1432 1803
1432 1804
1432 1805
1432 1806
1432 1807
1432 1808
1432 1809
1432 1810
1432 1811
1432 1812
1432 1813
1432 1814
1432 1815
1432 1816
1432 1817
1432 1818
1432 1819
1432 1820
1432 1821
1432 1822
1432 1823
1432 1824
1432 1825
1432 1826
1432 1827
1432 1828
1432 1829
1432 1830
1432 1831
1432 1832
1432 1833
1432 1834
1432 1835
1432 1836
1432 1837
1432 1838
1432 1839
1432 1840
1432 1841
1432 1842
1432 1843
1432 1844
1432 1845
1432 1846
1432 1847
1432 1848
1432 1849
1432 1850
1432 1851
1432 1852
1432 1853
1432 1854
1432 1855
1432 1856
1432 1857
1432 1858
1432 1859
1432 1860
1432 1861
1432 1862
1432 1863
1432 1864
1432 1865
1432 1866
1432 1867
1432 1868
1432 1869
1432 1870
1432 1871
1432 1872
1432 1873
1432 1874
1432 1875
1432 1876
1432 1877
1432 1878
1432 1879
1432 1880
1432 1881
1432 1882
1432 1883
1432 1884
1432 1885
1432 1886
1432 1887
1432 1888
1432 1889
1432 1890
1432 1891
1432 1892
1432 1893
1432 1894
1432 1895
1432 1896
1432 1897
1432 1898
1432 1899
1432 1900
1432 1901
1432 1902
1432 1903
1432 1904
1432 1905
1432 1906
1432 1907
1432 1908
1432 1909
1432 1910
1432 1911
1432 1912
1432 1913
1432 1914
1432 1915
1432 1916
1432 1917
1432 1918
1432 1919
1432 1920
1432 1921
1432 1922
1432 1923
1432 1924
1432 1925
1432 1926
1432 1927
1432 1928
1432 1929
1432 1930
1432 1931
1432 1932
1432 1933
1432 1934
1432 1935
1432 1936
1432 1937
1432 1938
1432 1939
1432 1940
1432 1941
1432 1942
1432 1943
1432 1944
1432 1945
1432 1946
1432 1947
1432 1948
1432 1949
1432 1950
1432 1951
1432 1952
1432 1953
1432 1954
1432 1955
1432 1956
1432 1957
1432 1958
1432 1959
1432 1960
1432 1961
1432 1962
1432 1963
1432 1964
1432 1965
1432 1966
1432 1967
1432 1968
1432 1969
1432 1970
1432 1971
1432 1972
1432 1973
1432 1974
1432 1975
1432 1976
1432 1977
1432 1978
1432 1979
1432 1980
1432 1981
1432 1982
1432 1983
1432 1984
1432 1985
1432 1986
1432 1987
1432 1988
1432 1989
1432 1990
1432 1991
1432 1992
1432 1993
1432 1994
1432 1995
1432 1996
1432 1997
1432 1998
1432 1999
1432 2000
1432 2001
1432 2002
1432 2003
1432 2004
1432 2005
1432 2006
1432 2007
1432 2008
1432 2009
1432 2010
1432 2011
1432 2012
1432 2013
1432 2014
1432 2015
1432 2016
1432 2017
1432 2018
1432 2019
1432 2020
1432 2021
1432 2022
1432 2023
1432 2024
1432 2025
1432 2026
1432 2027
1432 2028
1432 2029
1432 2030
1432 2031
1432 2032
1432 2033
1432 2034
1432 2035
1432 2036
1432 2037
1432 2038
1432 2039
1432 2040
1432 2041
1432 2042
1432 2043
1432 2044
1432 2045
1432 2046
1432 2047
1432 2048
1432 2049
1432 2050
1432 2051
1432 2052
1432 2053
1432 2054
1432 2055
1432 2056
1432 2057
1432 2058
1432 2059
1432 2060
1432 2061
1432 2062
1432 2063
1432 2064
1432 2065
1432 2066
1432 2067
1432 2068
1432 2069
1432 2070
1432 2071
1432 2072
1432 2073
1432 2074
1432 2075
1432 2076
1432 2077
1432 2078
1432 2079
1432 2080
1432 2081
1432 2082
1432 2083
1432 2084
1432 2085
1432 2086
1432 2087
1432 2088
1432 2089
1432 2090
1432 2091
1432 2092
1432 2093
1432 2094
1432 2095
1432 2096
1432 2097
1432 2098
1432 2099
1432 2100
1432 2101
1432 2102
1432 2103
1432 2104
1432 2105
1432 2106
1432 2107
1432 2108
1432 2109
1432 2110
1432 2111
1432 2112
1432 2113
1432 2114
1432 2115
1432 2116
1432 2117
1432 2118
1432 2119
1432 2120
1432 2121
1432 2122
1432 2123
1432 2124
1432 2125
1432 2126
1432 2127
1432 2128
1432 2129
1432 2130
1432 2131
1432 2132
1432 2133
1432 2134
1432 2135
1432 2136
1432 2137
1432 2138
1432 2139
1432 2140
1432 2141
1432 2142
1432 2143
1432 2144
1432 2145
1432 2146
1432 2147
1432 2148
1432 2149
1432 2150
1432 2151
1432 2152
1432 2153
1432 2154
1432 2155
1432 2156
1432 2157
1432 2158
1432 2159
1432 2160
1432 2161
1432 2162
1432 2163
1432 2164
1432 2165
1432 2166
1432 2167
1432 2168
1432 2169
1432 2170
1432 2171
1432 2172
1432 2173
1432 2174
1432 2175
1432 2176
1432 2177
1432 2178
1432 2179
1432 2180
1432 2181
1432 2182
1432 2183
1432 2184
1432 2185
1432 2186
1432 2187
1432 2188
1432 2189
1432 2190
1432 2191
1432 2192
1432 2193
1432 2194
1432 2195
1432 2196
1432 2197
1432 2198
1432 2199
1432 2200
1432 2201
1432 2202
1432 2203
1432 2204
1432 2205
1432 2206
1432 2207
1432 2208
1432 2209
1432 2210
1432 2211
1432 2212
1432 2213
1432 2214
1432 2215
1432 2216
1432 2217
1432 2218
1432 2219
1432 2220
1432 2221
1432 2222
1432 2223
1432 2224
1432 2225
1432 2226
1432 2227
1432 2228
1432 2229
1432 2230
1432 2231
1432 2232
1432 2233
1432 2234
1432 2235
1432 2236
1432 2237
1432 2238
1432 2239
1432 2240
1432 2241
1432 2242
1432 2243
1432 2244
1432 2245
1432 2246
1432 2247
1432 2248
1432 2249
1432 2250
1432 2251
1432 2252
1432 2253
1432 2254
1432 2255
1432 2256
1432 2257
1432 2258
1432 2259
1432 2260
1432 2261
1432 2262
1432 2263
1432 2264
1432 2265
1432 2266
1432 2267
1432 2268
1432 2269
1432 2270
1432 2271
1432 2272
1432 2273
1432 2274
1432 2275
1432 2276
1432 2277
1432 2278
1432 2279
1432 2280
1432 2281
1432 2282
1432 2283
1432 2284
1432 2285
1432 2286
1432 2287
1432 2288
1432 2289
1432 2290
1432 2291
1432 2292
1432 2293
1432 2294
1432 2295
1432 2296
1432 2297
1432 2298
1432 2299
1432 2300
1432 2301
1432 2302
1432 2303
1432 2304
1432 2305
1432 2306
1432 2307
1432 2308
1432 2309
1432 2310
1432 2311
1432 2312
1432 2313
1432 2314
1432 2315
1432 2316
1432 2317
1432 2318
1432 2319
1432 2320
1432 2321
1432 2322
1432 2323
1432 2324
1432 2325
1432 2326
1432 2327
1432 2328
1432 2329
1432 2330
1432 2331
1432 2332
1432 2333
1432 2334
1432 2335
1432 2336
1432 2337
1432 2338
1432 2339
1432 2340
1432 2341
1432 2342
1432 2343
1432 2344
1432 2345
1432 2346
1432 2347
1432 2348
1432 2349
1432 2350
1432 2351
1432 2352
1432 2353
1432 2354
1432 2355
1432 2356
1432 2357
1432 2358
1432 2359
1432 2360
1432 2361
1432 2362
1432 2363
1432 2364
1432 2365
1432 2366
1432 2367
1432 2368
1432 2369
1432 2370
1432 2371
1432 2372
1432 2373
1432 2374
1432 2375
1432 2376
1432 2377
1432 2378
1432 2379
1432 2380
1432 2381
1432 2382
1432 2383
1432 2384
1432 2385
1432 2386
1432 2387
1432 2388
1432 2389
1432 2390
1432 2391
1432 2392
1432 2393
1432 2394
1432 2395
1432 2396
1432 2397
1432 2398
1432 2399
1432 2400
1432 2401
1432 2402
1432 2403
1432 2404
1432 2405
1432 2406
1432 2407
1432 2408
1432 2409
1432 2410
1432 2411
1432 2412
1432 2413
1432 2414
1432 2415
1432 2416
1432 2417
1432 2418
1432 2419
1432 2420
1432 2421
1432 2422
1432 2423
1432 2424
1432 2425
1432 2426
1432 2427
1432 2428
1432 2429
1432 2430
1432 2431
1432 2432
1432 2433
1432 2434
1432 2435
1432 2436
1432 2437
1432 2438
1432 2439
1432 2440
1432 2441
1432 2442
1432 2443
1432 2444
1432 2445
1432 2446
1432 2447
1432 2448
1432 2449
1432 2450
1432 2451
1432 2452
1432 2453
1432 2454
1432 2455
1432 2456
1432 2457
1432 2458
1432 2459
1432 2460
1432 2461
1432 2462
1432 2463
1432 2464
1432 2465
1432 2466
1432 2467
1432 2468
1432 2469
1432 2470
1432 2471
1432 2472
1432 2473
1432 2474
1432 2475
1432 2476
1432 2477
1432 2478
1432 2479
1432 2480
1432 2481
1432 2482
1432 2483
1432 2484
1432 2485
1432 2486
1432 2487
1432 2488
1432 2489
1432 2490
1432 2491
1432 2492
1432 2493
1432 2494
1432 2495
1432 2496
1432 2497
1432 2498
1432 2499
1432 2500
1432 2501
1432 2502
1432 2503
1432 2504
1432 2505
1432 2506
1432 2507
1432 2508
1432 2509
1432 2510
1432 2511
1432 2512
1432 2513
1432 2514
1432 2515
1432 2516
1432 2517
1432 2518
1432 2519
1432 2520
1432 2521
1432 2522
1432 2523
1432 2524
1432 2525
1432 2526
1432 2527
1432 2528
1432 2529
1432 2530
1432 2531
1432 2532
1432 2533
1432 2534
1432 2535
1432 2536
1432 2537
1432 2538
1432 2539
1432 2540
1432 2541
1432 2542
1432 2543
1432 2544
1432 2545
1432 2546
1432 2547
1432 2548
1432 2549
1432 2550
1432 2551
1432 2552
1432 2553
1432 2554
1432 2555
1432 2556
1432 2557
1432 2558
1432 2559
1432 2560
1432 2561
1432 2562
1432 2563
1432 2564
1432 2565
1432 2566
1432 2567
1432 2568
1432 2569
1432 2570
1432 2571
1432 2572
1432 2573
1432 2574
1432 2575
1432 2576
1432 2577
1432 2578
1432 2579
1432 2580
1432 2581
1432 2582
1432 2583
1432 2584
1432 2585
1432 2586
1432 2587
1432 2588
1432 2589
1432 2590
1432 2591
1432 2592
1432 2593
1432 2594
1432 2595
1432 2596
1432 2597
1432 2598
1432 2599
1432 2600
1432 2601
1432 2602
1432 2603
1432 2604
1432 2605
1432 2606
1432 2607
1432 2608
1432 2609
1432 2610
1432 2611
1432 2613
1432 2614
1432 2615
1432 2616
1432 2617
1432 2618
1432 2619
1432 2620
1432 2621
1432 2622
1432 2623
1432 2624
1432 2625
1432 2626
1432 2627
1432 2628
1432 2629
1432 2630
1432 2631
1432 2632
1432 2633
1432 2634
1432 2635
1432 2636
1432 2637
1432 2638
1432 2639
1432 2640
1432 2641
1432 2642
1432 2643
1432 2644
1432 2645
1432 2646
1432 2647
1432 2648
1432 2649
1432 2650
1432 2651
1432 2652
1432 2653
1432 2654
1432 2655
1432 2656
1432 2657
1432 2658
1432 2659
1432 2660
1432 2661
1432 2662
1432 2663
1432 2664
1432 2665
1432 2666
1432 2667
1432 2668
1432 2669
1432 2670
1432 2671
1432 2672
1432 2673
1432 2674
1432 2675
1432 2676
1432 2677
1432 2678
1432 2679
1432 2680
1432 2681
1432 2682
1432 2683
1432 2684
1432 2685
1432 2686
1432 2687
1432 2688
1432 2689
1432 2690
1432 2691
1432 2692
1432 2693
1432 2694
1432 2695
1432 2696
1432 2697
1432 2698
1432 2699
1432 2700
1432 2701
1432 2702
1432 2703
1432 2704
1432 2705
1432 2706
1432 2707
1432 2708
1432 2709
1432 2710
1432 2711
1432 2712
1432 2713
1432 2714
1432 2715
1432 2716
1432 2717
1432 2718
1432 2719
1432 2720
1432 2721
1432 2722
1432 2723
1432 2724
1432 2725
1432 2726
1432 2727
1432 2728
1432 2729
1432 2730
1432 2731
1432 2732
1432 2733
1432 2734
1432 2735
1432 2736
1432 2737
1432 2738
1432 2739
1432 2740
1432 2741
1432 2742
1432 2743
1432 2744
1432 2745
1432 2746
1432 2747
1432 2748
1432 2749
1432 2750
1432 2751
1432 2752
1432 2753
1432 2754
1432 2755
1432 2756
1432 2757
1432 2758
1432 2759
1432 2760
1432 2761
1432 2762
1432 2763
1432 2764
1432 2765
1432 2766
1432 2767
1432 2768
1432 2769
1432 2770
1432 2771
1432 2772
1432 2773
1432 2774
1432 2775
1432 2776
1432 2777
1432 2778
1432 2779
1432 2780
1432 2781
1432 2782
1432 2783
1432 2784
1432 2785
1432 2786
1432 2787
1432 2788
1432 2789
1432 2790
1432 2791
1432 2792
1432 2793
1432 2794
1432 2795
1432 2796
1432 2797
1432 2798
1432 2799
1432 2800
1432 2801
1432 2802
1432 2803
1432 2804
1432 2805
1432 2806
1432 2807
1432 2808
1432 2809
1432 2810
1432 2811
1432 2812
1432 2813
1432 2814
1432 2815
1432 2816
1432 2817
1432 2818
1432 2819
1432 2820
1432 2821
1432 2822
1432 2823
1432 2824
1432 2825
1432 2826
1432 2827
1432 2828
1432 2829
1432 2830
1432 2831
1432 2832
1432 2833
1432 2834
1432 2835
1432 2836
1432 2837
1432 2838
1432 2839
1432 2840
1432 2841
1432 2842
1432 2843
1432 2844
1432 2845
1432 2846
1432 2847
1432 2848
1432 2849
1432 2850
1432 2851
1432 2852
1432 2853
1432 2854
1432 2855
1432 2856
1432 2857
1432 2858
1432 2859
1432 2860
1432 2861
1432 2862
1432 2863
1432 2864
1432 2865
1432 2866
1432 2867
1432 2868
1432 2869
1432 2870
1432 2871
1432 2872
1432 2873
1432 2874
1432 2875
1432 2876
1432 2877
1432 2878
1432 2879
1432 2880
1432 2881
1432 2882
1432 2883
1432 2884
1432 2885
1432 2886
1432 2887
1432 2888
1432 2889
1432 2890
1432 2891
1432 2892
1432 2893
1432 2894
1432 2895
1432 2896
1432 2897
1432 2898
1432 2899
1432 2900
1432 2901
1432 2902
1432 2903
1432 2904
1432 2905
1432 2906
1432 2907
1432 2908
1432 2909
1432 2910
1432 2911
1432 2912
1432 2913
1432 2914
1432 2915
1432 2916
1432 2917
1432 2918
1433 2612
1434 2612
1435 2612
1436 2612
1437 2612
1438 2612
1439 2612
1440 2612
1441 2612
1442 2612
1443 2612
1444 2612
1445 2612
1446 2612
1447 2612
1448 2612
1449 2612
1450 2612
1451 2612
1452 2612
1453 2612
1454 2612
1455 2612
1456 2612
1457 2612
1458 2612
1459 2612
1460 2612
1461 2612
1462 2612
1463 2612
1464 2612
1465 2612
1466 2612
1467 2612
1468 2612
1469 2612
1470 2612
1471 2612
1472 2612
1473 2612
1474 2612
1475 2612
1476 2612
1477 2612
1478 2612
1479 2612
1480 2612
1481 2612
1482 2612
1483 2612
1484 2612
1485 2612